LWAVE = .FALSE.
PREC = Accurate
ICHARG=11
ENCUT = 700
ISMEAR = 1;  SIGMA = 0.1
SYMPREC=1e-4
LORBIT=10
NPAR = 4
EMIN=14.2721
EMAX=15.2721
NEDOS=1000
