CaYH20
1.00000 
2.963800    0.000000    0.000000
0.000000    2.963800    0.000000
0.000000    0.000000    4.186510
 Ca   Y   H   
  1   1   20   
Cartesian 
2.963799    2.963799    4.186498
1.481899    1.481899    2.093249
0.759918    1.481899    0.484797
2.203881    1.481899    0.484797
1.481899    0.759918    0.484797
1.481899    2.203881    0.484797
2.203881    1.481899    3.701702
0.759918    1.481899    3.701702
1.481899    0.759918    3.701702
1.481899    2.203881    3.701702
2.963799    1.481899    3.174622
1.481899    2.963799    3.174622
2.963799    1.481899    1.011877
1.481899    2.963799    1.011877
0.703310    2.963799    1.562401
2.260490    2.963799    1.562401
2.963799    0.703310    1.562401
2.963799    2.260490    1.562401
2.260490    2.963799    2.624097
0.703310    2.963799    2.624097
2.963799    0.703310    2.624097
2.963799    2.260490    2.624097

