CaYH20                                  
   1.0000000000000000     
     2.9638000000000000    0.0000000000000000    0.0000000000000000
     0.0000000000000000    2.9638000000000000    0.0000000000000000
     0.0000000000000000    0.0000000000000000    4.1865100000000002
  Ca              Y               H             
     1     1    20
Direct
  0.9999996625953145  0.9999996625953145  0.9999971336507016
  0.4999996625953145  0.4999996625953145  0.4999985668253544
  0.2563998920305011  0.4999996625953145  0.1157997950560272
  0.7435997705648134  0.4999996625953145  0.1157997950560272
  0.4999996625953145  0.2563998920305011  0.1157997950560272
  0.4999996625953145  0.7435997705648134  0.1157997950560272
  0.7435997705648134  0.4999996625953145  0.8841975774571154
  0.2563998920305011  0.4999996625953145  0.8841975774571154
  0.4999996625953145  0.2563998920305011  0.8841975774571154
  0.4999996625953145  0.7435997705648134  0.8841975774571154
  0.9999996625953145  0.4999996625953145  0.7582979617867878
  0.4999996625953145  0.9999996625953145  0.7582979617867878
  0.9999996625953145  0.4999996625953145  0.2416994107263548
  0.4999996625953145  0.9999996625953145  0.2416994107263548
  0.2373000877252167  0.9999996625953145  0.3731989174754133
  0.7626999122747833  0.9999996625953145  0.3731989174754133
  0.9999996625953145  0.2373000877252167  0.3731989174754133
  0.9999996625953145  0.7626999122747833  0.3731989174754133
  0.7626999122747833  0.9999996625953145  0.6267982161752883
  0.2373000877252167  0.9999996625953145  0.6267982161752883
  0.9999996625953145  0.2373000877252167  0.6267982161752883
  0.9999996625953145  0.7626999122747833  0.6267982161752883

  0.00000000E+00  0.00000000E+00  0.00000000E+00
  0.00000000E+00  0.00000000E+00  0.00000000E+00
  0.00000000E+00  0.00000000E+00  0.00000000E+00
  0.00000000E+00  0.00000000E+00  0.00000000E+00
  0.00000000E+00  0.00000000E+00  0.00000000E+00
  0.00000000E+00  0.00000000E+00  0.00000000E+00
  0.00000000E+00  0.00000000E+00  0.00000000E+00
  0.00000000E+00  0.00000000E+00  0.00000000E+00
  0.00000000E+00  0.00000000E+00  0.00000000E+00
  0.00000000E+00  0.00000000E+00  0.00000000E+00
  0.00000000E+00  0.00000000E+00  0.00000000E+00
  0.00000000E+00  0.00000000E+00  0.00000000E+00
  0.00000000E+00  0.00000000E+00  0.00000000E+00
  0.00000000E+00  0.00000000E+00  0.00000000E+00
  0.00000000E+00  0.00000000E+00  0.00000000E+00
  0.00000000E+00  0.00000000E+00  0.00000000E+00
  0.00000000E+00  0.00000000E+00  0.00000000E+00
  0.00000000E+00  0.00000000E+00  0.00000000E+00
  0.00000000E+00  0.00000000E+00  0.00000000E+00
  0.00000000E+00  0.00000000E+00  0.00000000E+00
  0.00000000E+00  0.00000000E+00  0.00000000E+00
  0.00000000E+00  0.00000000E+00  0.00000000E+00
