Regular k-point mesh
0              
Gamma          
17 17 11        
0  0  0 

